
Gurobi 9.5.1 (mac64[x86], gurobi_cl) logging started Wed Sep 18 07:25:57 2024

Set parameter Username
Set parameter LogFile to value "gurobi.log"
Academic license - for non-commercial use only - expires 2025-09-17
Using license file /Users/fredericbusch/gurobi.lic

Gurobi 9.5.1 (mac64[x86], gurobi_cl) logging started Wed Sep 18 07:26:10 2024

Set parameter Username
Set parameter LogFile to value "gurobi.log"
Academic license - for non-commercial use only - expires 2025-09-17
Using license file /Users/fredericbusch/gurobi.lic

Gurobi 9.5.1 (mac64[x86], gurobi_cl) logging started Wed Sep 18 07:26:14 2024

Set parameter Username
Set parameter LogFile to value "gurobi.log"
Academic license - for non-commercial use only - expires 2025-09-17
Using license file /Users/fredericbusch/gurobi.lic

Gurobi 9.5.1 (mac64[x86], gurobi_cl) logging started Wed Sep 18 07:34:02 2024

Set parameter Username
Set parameter LogFile to value "gurobi.log"
Academic license - for non-commercial use only - expires 2025-09-17
Using license file /Users/fredericbusch/gurobi.lic

Gurobi 9.5.1 (mac64[x86], gurobi_cl) logging started Wed Sep 18 07:46:40 2024

Set parameter Username
Set parameter LogFile to value "gurobi.log"
Academic license - for non-commercial use only - expires 2025-09-17
Using license file /Users/fredericbusch/gurobi.lic

Gurobi 9.5.1 (mac64[x86], gurobi_cl) logging started Wed Sep 18 07:47:32 2024

Set parameter Username
Set parameter LogFile to value "gurobi.log"
Academic license - for non-commercial use only - expires 2025-09-17
Using license file /Users/fredericbusch/gurobi.lic

Gurobi 9.5.1 (mac64[x86], gurobi_cl) logging started Wed Sep 18 07:47:47 2024

Set parameter Username
Set parameter LogFile to value "gurobi.log"
Academic license - for non-commercial use only - expires 2025-09-17
Using license file /Users/fredericbusch/gurobi.lic

Gurobi 9.5.1 (mac64[x86], gurobi_cl) logging started Wed Sep 18 08:47:55 2024

Set parameter Username
Set parameter LogFile to value "gurobi.log"
Academic license - for non-commercial use only - expires 2025-09-17
Using license file /Users/fredericbusch/gurobi.lic

Gurobi 9.5.1 (mac64[x86], gurobi_cl) logging started Wed Sep 18 11:56:43 2024

Set parameter Username
Set parameter LogFile to value "gurobi.log"
Academic license - for non-commercial use only - expires 2025-09-17
Using license file /Users/fredericbusch/gurobi.lic

Gurobi 9.5.1 (mac64[x86], gurobi_cl) logging started Wed Sep 18 11:58:29 2024

Set parameter Username
Set parameter LogFile to value "gurobi.log"
Academic license - for non-commercial use only - expires 2025-09-17
Using license file /Users/fredericbusch/gurobi.lic

Gurobi 9.5.1 (mac64[x86], gurobi_cl) logging started Wed Sep 18 11:59:19 2024

Set parameter Username
Set parameter LogFile to value "gurobi.log"
Academic license - for non-commercial use only - expires 2025-09-17
Using license file /Users/fredericbusch/gurobi.lic

Gurobi 9.5.1 (mac64[x86], gurobi_cl) logging started Wed Sep 18 14:41:08 2024

Set parameter Username
Set parameter LogFile to value "gurobi.log"
Academic license - for non-commercial use only - expires 2025-09-17
Using license file /Users/fredericbusch/gurobi.lic

Gurobi 9.5.1 (mac64[x86], gurobi_cl) logging started Wed Sep 18 15:41:38 2024

Set parameter Username
Set parameter LogFile to value "gurobi.log"
Academic license - for non-commercial use only - expires 2025-09-17
Using license file /Users/fredericbusch/gurobi.lic

Gurobi 9.5.1 (mac64[x86], gurobi_cl) logging started Wed Sep 18 15:41:48 2024

Set parameter Username
Set parameter LogFile to value "gurobi.log"
Academic license - for non-commercial use only - expires 2025-09-17
Using license file /Users/fredericbusch/gurobi.lic

Gurobi 9.5.1 (mac64[x86], gurobi_cl) logging started Wed Sep 18 15:42:28 2024

Set parameter Username
Set parameter LogFile to value "gurobi.log"
Academic license - for non-commercial use only - expires 2025-09-17
Using license file /Users/fredericbusch/gurobi.lic

Gurobi 9.5.1 (mac64[x86], gurobi_cl) logging started Wed Sep 18 15:42:31 2024

Set parameter Username
Set parameter LogFile to value "gurobi.log"
Academic license - for non-commercial use only - expires 2025-09-17
Using license file /Users/fredericbusch/gurobi.lic

Gurobi 9.5.1 (mac64[x86], gurobi_cl) logging started Wed Sep 18 15:43:36 2024

Set parameter Username
Set parameter LogFile to value "gurobi.log"
Academic license - for non-commercial use only - expires 2025-09-17
Using license file /Users/fredericbusch/gurobi.lic

Gurobi 9.5.1 (mac64[x86], gurobi_cl) logging started Wed Sep 18 15:43:40 2024

Set parameter Username
Set parameter LogFile to value "gurobi.log"
Academic license - for non-commercial use only - expires 2025-09-17
Using license file /Users/fredericbusch/gurobi.lic

Gurobi 9.5.1 (mac64[x86], gurobi_cl) logging started Wed Sep 18 15:43:51 2024

Set parameter Username
Set parameter LogFile to value "gurobi.log"
Academic license - for non-commercial use only - expires 2025-09-17
Using license file /Users/fredericbusch/gurobi.lic

Gurobi 9.5.1 (mac64[x86], gurobi_cl) logging started Wed Sep 18 16:21:48 2024

Set parameter Username
Set parameter LogFile to value "gurobi.log"
Academic license - for non-commercial use only - expires 2025-09-17
Using license file /Users/fredericbusch/gurobi.lic

Gurobi 9.5.1 (mac64[x86], gurobi_cl) logging started Wed Sep 18 17:16:41 2024

Set parameter Username
Set parameter LogFile to value "gurobi.log"
Academic license - for non-commercial use only - expires 2025-09-17
Using license file /Users/fredericbusch/gurobi.lic

Gurobi 9.5.1 (mac64[x86], gurobi_cl) logging started Wed Sep 18 21:10:30 2024

Set parameter Username
Set parameter LogFile to value "gurobi.log"
Academic license - for non-commercial use only - expires 2025-09-17
Using license file /Users/fredericbusch/gurobi.lic
